; Options: -q --produce-models --incremental --print-success --lang smt2.6
(declare-fun start!54818 () Bool)

(assert start!54818)

(declare-fun nBits!539 () (_ BitVec 64))

(declare-fun from!530 () (_ BitVec 64))

(assert (=> start!54818 (and (bvsle #b0000000000000000000000000000000000000000000000000000000000000000 nBits!539) (bvsle nBits!539 #b0000000000000000000000000000001111111111111111111111111111111000) (bvsle #b0000000000000000000000000000000000000000000000000000000000000000 from!530) (bvsle from!530 nBits!539) (not (= (bvand nBits!539 #b1000000000000000000000000000000000000000000000000000000000000000) (bvand from!530 #b1000000000000000000000000000000000000000000000000000000000000000))) (not (= (bvand nBits!539 #b1000000000000000000000000000000000000000000000000000000000000000) (bvand (bvsub nBits!539 from!530) #b1000000000000000000000000000000000000000000000000000000000000000))))))

(assert (=> start!54818 true))

(push 1)

(check-sat)

(pop 1)

